NAME : in_house_8_6
TYPE : TSP
DIMENSION : 8
EDGE_WEIGHT_TYPE : EXPLICIT
EDGE_WEIGHT_FORMAT : UPPER_ROW
COMMENT : INVERSION_SHIFT=5
EDGE_WEIGHT_SECTION
10
50
44
56
41
9
14
40
43
18
26
18
61
42
47
18
47
43
12
38
12
42
63
17
18
44
28
15
